#######################################
### Exact MIP solver for the HHCRSP ###
#######################################
-- Instance file: new-instances/HHCRSP_50_10_98_1.0_R_RC.txt
-- Max threads: 4
-- Time limit: 999999 seconds
-- Use initial solution: No
Trivial flow violations prevented generating 4546 variables.
Model exported.
Version identifier: 20.1.0.0 | 2020-11-10 | 9bedb6d68
CPXPARAM_Threads                                 4
CPXPARAM_TimeLimit                               999999
Parallel mode: deterministic, using up to 4 threads for concurrent optimization:
 * Starting dual Simplex on 1 thread...
 * Starting Barrier on 3 threads...
Tried aggregator 1 time.
LP Presolve eliminated 1188 rows and 319 columns.
Reduced LP has 6576 rows, 6425 columns, and 50410 nonzeros.
Presolve time = 0.03 sec. (15.26 ticks)
Symmetry aggregator did 4136 additional substitutions.

Iteration log . . .
Iteration:     1   Dual objective     =             0.000000
Iteration:   208   Dual objective     =           129.669550

Dual crossover.
  Dual:  Fixing 72 variables.
       71 DMoves:  Infeasibility  9.38141420e-15  Objective  1.29671897e+02
        0 DMoves:  Infeasibility  5.16256671e-15  Objective  1.29671897e+02
  Dual:  Pushed 2, exchanged 70.
  Primal:  Fixing 25 variables.
       24 PMoves:  Infeasibility  1.11022302e-16  Objective  1.29671897e+02
        0 PMoves:  Infeasibility  1.11022302e-16  Objective  1.29671897e+02
  Primal:  Pushed 7, exchanged 18.

Dual simplex solved model.


Solution status from MIP model:
-- Processing time: 0.052 sec.
-- Memory used: 72.4951 MB
-- Best bound: inf
-- Obj value: 129.672
-- Gap: inf%
-- Total distance: 389.016
-- Total tardiness: 0
-- Largest tardiness: 0
